(declare-fun x3 () Int)
(declare-fun x1 () Int)
(declare-fun x2 () Int)
(declare-fun y () Int)

(assert (let ((a!1 (div (+ (* 4 x2) (* 4 x1) (* 4 x3) (- 1)) 5))
      (a!2 (div (+ (* 3 x1) (* 4 x2) (- 1)) 4)))
  (= y (ite (> a!1 (+ a!2 0)) a!2 a!1))))
(assert (let ((a!1 (>= (+ (* (- 4) x1) (* (- 4) x2) (* (- 4) x3)) (* (- 5) y))))
  (or (= (* 4 y) (+ (* 3 x1) (* 4 x2))) a!1)))
(check-sat)
